(set-logic HORN)
(declare-datatypes ((Nat_1 0)) (((Z_1 ) (S_1 (unS_0 Nat_1)))))
(declare-fun diseqNat_0 (Nat_1 Nat_1) Bool)
(declare-fun unS_1 (Nat_1 Nat_1) Bool)
(declare-fun isZ_0 (Nat_1) Bool)
(declare-fun isS_0 (Nat_1) Bool)
(assert (forall ((x_33 Nat_1) (x_32 Nat_1))
	(=> (= x_33 (S_1 x_32))
	    (unS_1 x_32 x_33))))
(assert (isZ_0 Z_1))
(assert (forall ((x_34 Nat_1))
	(isS_0 (S_1 x_34))))
(assert (forall ((x_35 Nat_1))
	(diseqNat_0 Z_1 (S_1 x_35))))
(assert (forall ((x_36 Nat_1))
	(diseqNat_0 (S_1 x_36) Z_1)))
(assert (forall ((x_37 Nat_1) (x_38 Nat_1))
	(=> (diseqNat_0 x_37 x_38)
	    (diseqNat_0 (S_1 x_37) (S_1 x_38)))))
(declare-fun add_0 (Nat_1 Nat_1 Nat_1) Bool)
(declare-fun minus_0 (Nat_1 Nat_1 Nat_1) Bool)
(declare-fun le_0 (Nat_1 Nat_1) Bool)
(declare-fun ge_0 (Nat_1 Nat_1) Bool)
(declare-fun lt_0 (Nat_1 Nat_1) Bool)
(declare-fun gt_0 (Nat_1 Nat_1) Bool)
(declare-fun mult_0 (Nat_1 Nat_1 Nat_1) Bool)
(declare-fun div_0 (Nat_1 Nat_1 Nat_1) Bool)
(declare-fun mod_0 (Nat_1 Nat_1 Nat_1) Bool)
(assert (forall ((y_6 Nat_1))
	(add_0 y_6 Z_1 y_6)))
(assert (forall ((x_30 Nat_1) (y_6 Nat_1) (r_0 Nat_1))
	(=> (add_0 r_0 x_30 y_6)
	    (add_0 (S_1 r_0) (S_1 x_30) y_6))))
(assert (forall ((y_6 Nat_1))
	(minus_0 Z_1 Z_1 y_6)))
(assert (forall ((x_30 Nat_1) (y_6 Nat_1) (r_0 Nat_1))
	(=> (minus_0 r_0 x_30 y_6)
	    (minus_0 (S_1 r_0) (S_1 x_30) y_6))))
(assert (forall ((y_6 Nat_1))
	(le_0 Z_1 y_6)))
(assert (forall ((x_30 Nat_1) (y_6 Nat_1))
	(=> (le_0 x_30 y_6)
	    (le_0 (S_1 x_30) (S_1 y_6)))))
(assert (forall ((y_6 Nat_1))
	(ge_0 y_6 Z_1)))
(assert (forall ((x_30 Nat_1) (y_6 Nat_1))
	(=> (ge_0 x_30 y_6)
	    (ge_0 (S_1 x_30) (S_1 y_6)))))
(assert (forall ((y_6 Nat_1))
	(lt_0 Z_1 (S_1 y_6))))
(assert (forall ((x_30 Nat_1) (y_6 Nat_1))
	(=> (lt_0 x_30 y_6)
	    (lt_0 (S_1 x_30) (S_1 y_6)))))
(assert (forall ((y_6 Nat_1))
	(gt_0 (S_1 y_6) Z_1)))
(assert (forall ((x_30 Nat_1) (y_6 Nat_1))
	(=> (gt_0 x_30 y_6)
	    (gt_0 (S_1 x_30) (S_1 y_6)))))
(assert (forall ((y_6 Nat_1))
	(mult_0 Z_1 Z_1 y_6)))
(assert (forall ((x_30 Nat_1) (y_6 Nat_1) (r_0 Nat_1) (z_4 Nat_1))
	(=>	(and (mult_0 r_0 x_30 y_6)
			(add_0 z_4 r_0 y_6))
		(mult_0 z_4 (S_1 x_30) y_6))))
(assert (forall ((x_30 Nat_1) (y_6 Nat_1))
	(=> (lt_0 x_30 y_6)
	    (div_0 Z_1 x_30 y_6))))
(assert (forall ((x_30 Nat_1) (y_6 Nat_1) (r_0 Nat_1) (z_4 Nat_1))
	(=>	(and (ge_0 x_30 y_6)
			(minus_0 z_4 x_30 y_6)
			(div_0 r_0 z_4 y_6))
		(div_0 (S_1 r_0) x_30 y_6))))
(assert (forall ((x_30 Nat_1) (y_6 Nat_1))
	(=> (lt_0 x_30 y_6)
	    (mod_0 x_30 x_30 y_6))))
(assert (forall ((x_30 Nat_1) (y_6 Nat_1) (r_0 Nat_1) (z_4 Nat_1))
	(=>	(and (ge_0 x_30 y_6)
			(minus_0 z_4 x_30 y_6)
			(mod_0 r_0 z_4 y_6))
		(mod_0 r_0 x_30 y_6))))
(declare-datatypes ((Nat_0 0)) (((Z_0 ) (S_0 (projS_0 Nat_0)))))
(declare-fun diseqNat_1 (Nat_0 Nat_0) Bool)
(declare-fun projS_1 (Nat_0 Nat_0) Bool)
(declare-fun isZ_1 (Nat_0) Bool)
(declare-fun isS_1 (Nat_0) Bool)
(assert (forall ((x_41 Nat_0) (x_40 Nat_0))
	(=> (= x_41 (S_0 x_40))
	    (projS_1 x_40 x_41))))
(assert (isZ_1 Z_0))
(assert (forall ((x_42 Nat_0))
	(isS_1 (S_0 x_42))))
(assert (forall ((x_43 Nat_0))
	(diseqNat_1 Z_0 (S_0 x_43))))
(assert (forall ((x_44 Nat_0))
	(diseqNat_1 (S_0 x_44) Z_0)))
(assert (forall ((x_45 Nat_0) (x_46 Nat_0))
	(=> (diseqNat_1 x_45 x_46)
	    (diseqNat_1 (S_0 x_45) (S_0 x_46)))))
(declare-datatypes ((list_0 0)) (((nil_0 ) (cons_0 (head_0 Nat_0) (tail_0 list_0)))))
(declare-fun diseqlist_0 (list_0 list_0) Bool)
(declare-fun head_1 (Nat_0 list_0) Bool)
(declare-fun tail_1 (list_0 list_0) Bool)
(declare-fun isnil_0 (list_0) Bool)
(declare-fun iscons_0 (list_0) Bool)
(assert (forall ((x_50 list_0) (x_48 Nat_0) (x_49 list_0))
	(=> (= x_50 (cons_0 x_48 x_49))
	    (head_1 x_48 x_50))))
(assert (forall ((x_50 list_0) (x_48 Nat_0) (x_49 list_0))
	(=> (= x_50 (cons_0 x_48 x_49))
	    (tail_1 x_49 x_50))))
(assert (isnil_0 nil_0))
(assert (forall ((x_51 Nat_0) (x_52 list_0))
	(iscons_0 (cons_0 x_51 x_52))))
(assert (forall ((x_53 Nat_0) (x_54 list_0))
	(diseqlist_0 nil_0 (cons_0 x_53 x_54))))
(assert (forall ((x_55 Nat_0) (x_56 list_0))
	(diseqlist_0 (cons_0 x_55 x_56) nil_0)))
(assert (forall ((x_57 Nat_0) (x_58 list_0) (x_59 Nat_0) (x_60 list_0))
	(=> (diseqNat_1 x_57 x_59)
	    (diseqlist_0 (cons_0 x_57 x_58) (cons_0 x_59 x_60)))))
(assert (forall ((x_57 Nat_0) (x_58 list_0) (x_59 Nat_0) (x_60 list_0))
	(=> (diseqlist_0 x_58 x_60)
	    (diseqlist_0 (cons_0 x_57 x_58) (cons_0 x_59 x_60)))))
(declare-fun barbar_0 (Bool Bool Bool) Bool)
(assert (forall ((x_0 Bool) (y_0 Bool) (x_7 Bool))
	(=>	(and (= x_7 true)
			x_0)
		(barbar_0 x_7 x_0 y_0))))
(assert (forall ((x_0 Bool) (y_0 Bool) (x_8 Bool))
	(=>	(and (= x_8 y_0)
			(not x_0))
		(barbar_0 x_8 x_0 y_0))))
(declare-fun x_1 (Bool Nat_0 Nat_0) Bool)
(assert (forall ((x_2 Nat_0) (y_1 Nat_0) (x_3 Nat_0) (y_2 Nat_0) (x_9 Bool) (x_10 Bool))
	(=>	(and (= x_9 x_10)
			(x_1 x_10 x_3 y_2)
			(= x_2 (S_0 x_3))
			(= y_1 (S_0 y_2)))
		(x_1 x_9 x_2 y_1))))
(assert (forall ((x_2 Nat_0) (y_1 Nat_0) (x_3 Nat_0) (x_11 Bool))
	(=>	(and (= x_11 false)
			(= x_2 (S_0 x_3))
			(= y_1 Z_0))
		(x_1 x_11 x_2 y_1))))
(assert (forall ((x_2 Nat_0) (y_1 Nat_0) (z_0 Nat_0) (x_12 Bool))
	(=>	(and (= x_12 false)
			(= x_2 Z_0)
			(= y_1 (S_0 z_0)))
		(x_1 x_12 x_2 y_1))))
(assert (forall ((x_2 Nat_0) (y_1 Nat_0) (x_13 Bool))
	(=>	(and (= x_13 true)
			(= x_2 Z_0)
			(= y_1 Z_0))
		(x_1 x_13 x_2 y_1))))
(declare-fun elem_0 (Bool Nat_0 list_0) Bool)
(assert (forall ((x_4 Nat_0) (y_3 list_0) (z_1 Nat_0) (xs_0 list_0) (x_14 Bool) (x_15 Bool) (x_16 Bool) (x_17 Bool))
	(=>	(and (= x_14 x_17)
			(x_1 x_15 x_4 z_1)
			(elem_0 x_16 x_4 xs_0)
			(barbar_0 x_17 x_15 x_16)
			(= y_3 (cons_0 z_1 xs_0)))
		(elem_0 x_14 x_4 y_3))))
(assert (forall ((x_4 Nat_0) (y_3 list_0) (x_18 Bool))
	(=>	(and (= x_18 false)
			(= y_3 nil_0))
		(elem_0 x_18 x_4 y_3))))
(declare-fun intersect_0 (list_0 list_0 list_0) Bool)
(assert (forall ((x_5 list_0) (y_4 list_0) (z_2 Nat_0) (xs_1 list_0) (x_20 list_0) (x_21 list_0) (x_19 Bool))
	(=>	(and (= x_20 (cons_0 z_2 x_21))
			(intersect_0 x_21 xs_1 y_4)
			(= x_5 (cons_0 z_2 xs_1))
			(= x_19 true)
			(elem_0 x_19 z_2 y_4))
		(intersect_0 x_20 x_5 y_4))))
(assert (forall ((x_5 list_0) (y_4 list_0) (z_2 Nat_0) (xs_1 list_0) (x_23 list_0) (x_24 list_0) (x_22 Bool))
	(=>	(and (= x_23 x_24)
			(intersect_0 x_24 xs_1 y_4)
			(= x_5 (cons_0 z_2 xs_1))
			(= x_22 false)
			(elem_0 x_22 z_2 y_4))
		(intersect_0 x_23 x_5 y_4))))
(assert (forall ((x_5 list_0) (y_4 list_0) (x_25 list_0))
	(=>	(and (= x_25 nil_0)
			(= x_5 nil_0))
		(intersect_0 x_25 x_5 y_4))))
(assert (forall ((x_6 Nat_0) (y_5 list_0) (z_3 list_0) (x_26 list_0) (x_27 Bool) (x_28 Bool) (x_29 Bool))
	(=>	(and (= x_27 false)
			(= x_28 true)
			(= x_29 true)
			(intersect_0 x_26 y_5 z_3)
			(elem_0 x_27 x_6 x_26)
			(elem_0 x_28 x_6 z_3)
			(elem_0 x_29 x_6 y_5))
		false)))
(check-sat)
